sat
(
  (define-fun G () String
    "aaaaaa")
  (define-fun I () String
    "aaaabaaaabaaaaaaaaaabaabaaa")
  (define-fun J () String
    "")
  (define-fun L () String
    "aaaaaaaaaabaabaaa")
  (define-fun H () String
    "aaaa")
  (define-fun K () String
    "aa")
)
